104331
38,62,3,49,64,30,23,21,4,18,47,17,36,12,72,63,0,9,28,13,69,61,79,44,45,53,20,70,65,35,25,75,66,19,8,76,57,73,31,39,81,74,34,27,7,43,67,58,52,82,60,5,78,29,1,37,15,10,32,26,6,16,55,50,71,80,59,46,48,33,56,42,2,11,22,54,41,24,14,68,77,40,51
